
Gurobi 11.0.0 (win64, C++) logging started Tue Jul 29 10:57:49 2025

Set parameter TokenServer to value "141.76.38.119"
### START HEURISTIC APPROACH APPROACH ###
ProblemVariant: 1
### START PREPROCESSING ###
## Start start solution procedure ##
Not enough vehicles for start solution, copying existing vehicle(s)...
Copied 1 vehicle(s). Total vehicles now: 6
Start solution with 6 Vehicles and total costs 332.301 in 0.56344 s.
### END PREPROCESSING ###
Route 0 0-2-3-1-0 : weight util 0.963636 | volume util 0.287511 | infeasible with packing heuristic | feasible with CP model
Route 1 0-4-13-14-0 : weight util 0.963636 | volume util 0.411000 | infeasible with packing heuristic | feasible with CP model
Route 2 0-6-0 : weight util 0.272727 | volume util 0.176800 | infeasible with packing heuristic | feasible with CP model
Route 3 0-7-8-0 : weight util 0.763636 | volume util 0.217111 | infeasible with packing heuristic | feasible with CP model
Route 4 0-15-10-9-11-0 : weight util 0.818182 | volume util 0.265511 | infeasible with packing heuristic | feasible with CP model
Route 5 0-5-12-0 : weight util 0.909091 | volume util 0.303067 | infeasible with packing heuristic | feasible with CP model
